90 15075562
57 67 61 81 17 25 80 89 23 13 29 43 11 32 66 9 79 18 1 20 5 68 40 73 88 45 3 90 10 56 8 62 4 46 19 84 12 16 41 72 82 36 53 2 83 49 52 26 54 86 31 51 76 34 60 7 74 70 21 48 78 39 37 59 69 75 35 38 85 6 50 14 24 58 42 44 71 22 30 64 63 55 28 33 47 87 77 15 27 65 
